p cnf 302 228
d 0.875 0.125
d 0.875 0.125
d 0.875 0.125
d 0.875 0.125
d 0.875 0.125
d 0.875 0.125
d 0.875 0.125
d 0.875 0.125
d 0.875 0.125
d 0.875 0.125
d 0.875 0.125
d 0.875 0.125
d 0.875 0.125
d 0.875 0.125
d 0.875 0.125
d 0.875 0.125
d 0.875 0.125
d 0.875 0.125
d 0.875 0.125
d 0.875 0.125
d 0.875 0.125
d 0.875 0.125
d 0.875 0.125
d 0.875 0.125
d 0.875 0.125
d 0.875 0.125
d 0.875 0.125
d 0.875 0.125
d 0.875 0.125
d 0.875 0.125
d 0.875 0.125
d 0.875 0.125
d 0.875 0.125
d 0.875 0.125
d 0.875 0.125
d 0.875 0.125
d 0.875 0.125
d 0.875 0.125
d 0.875 0.125
d 0.875 0.125
d 0.875 0.125
d 0.875 0.125
d 0.875 0.125
d 0.875 0.125
d 0.875 0.125
d 0.875 0.125
d 0.875 0.125
d 0.875 0.125
d 0.875 0.125
d 0.875 0.125
d 0.875 0.125
d 0.875 0.125
d 0.875 0.125
d 0.875 0.125
d 0.875 0.125
d 0.875 0.125
d 0.875 0.125
d 0.875 0.125
d 0.875 0.125
d 0.875 0.125
d 0.875 0.125
d 0.875 0.125
d 0.875 0.125
d 0.875 0.125
d 0.875 0.125
d 0.875 0.125
d 0.875 0.125
d 0.875 0.125
d 0.875 0.125
d 0.875 0.125
d 0.875 0.125
d 0.875 0.125
d 0.875 0.125
d 0.875 0.125
d 0.875 0.125
d 0.875 0.125
d 0.875 0.125
d 0.875 0.125
d 0.875 0.125
d 0.875 0.125
d 0.875 0.125
d 0.875 0.125
d 0.875 0.125
d 0.875 0.125
d 0.875 0.125
d 0.875 0.125
d 0.875 0.125
d 0.875 0.125
d 0.875 0.125
d 0.875 0.125
d 0.875 0.125
d 0.875 0.125
d 0.875 0.125
d 0.875 0.125
d 0.875 0.125
d 0.875 0.125
d 0.875 0.125
d 0.875 0.125
d 0.875 0.125
d 0.875 0.125
d 0.875 0.125
d 0.875 0.125
d 0.875 0.125
d 0.875 0.125
d 0.875 0.125
d 0.875 0.125
d 0.875 0.125
d 0.875 0.125
d 0.875 0.125
d 0.875 0.125
d 0.875 0.125
d 0.875 0.125
d 0.875 0.125
277
-294
251 -237 -0
237 -251 -0
245 -265 -2
265 -245 -2
288 -259 -4
259 -288 -4
232 -277 -6
277 -232 -6
249 -287 -8
287 -249 -8
231 -264 -10
264 -231 -10
247 -296 -12
296 -247 -12
288 -296 -14
296 -288 -14
280 -228 -16
228 -280 -16
296 -276 -18
276 -296 -18
233 -289 -20
289 -233 -20
248 -271 -22
271 -248 -22
233 -289 -24
289 -233 -24
234 -272 -26
272 -234 -26
247 -233 -28
233 -247 -28
285 -287 -30
287 -285 -30
263 -242 -32
242 -263 -32
227 -256 -34
256 -227 -34
236 -283 -36
283 -236 -36
252 -234 -38
234 -252 -38
245 -284 -40
284 -245 -40
280 -265 -42
265 -280 -42
259 -282 -44
282 -259 -44
293 -261 -46
261 -293 -46
287 -249 -48
249 -287 -48
234 -291 -50
291 -234 -50
285 -251 -52
251 -285 -52
288 -251 -54
251 -288 -54
231 -243 -56
243 -231 -56
267 -296 -58
296 -267 -58
235 -256 -60
256 -235 -60
267 -292 -62
292 -267 -62
245 -261 -64
261 -245 -64
240 -272 -66
272 -240 -66
240 -272 -68
272 -240 -68
230 -234 -70
234 -230 -70
287 -249 -72
249 -287 -72
288 -234 -74
234 -288 -74
287 -237 -76
237 -287 -76
233 -290 -78
290 -233 -78
288 -273 -80
273 -288 -80
298 -279 -82
279 -298 -82
278 -274 -84
274 -278 -84
288 -237 -86
237 -288 -86
264 -231 -88
231 -264 -88
235 -252 -90
252 -235 -90
245 -248 -92
248 -245 -92
285 -251 -94
251 -285 -94
235 -264 -96
264 -235 -96
273 -234 -98
234 -273 -98
267 -292 -100
292 -267 -100
243 -242 -102
242 -243 -102
288 -263 -104
263 -288 -104
259 -282 -106
282 -259 -106
251 -241 -108
241 -251 -108
296 -246 -110
246 -296 -110
247 -296 -112
296 -247 -112
255 -235 -114
235 -255 -114
278 -274 -116
274 -278 -116
294 -246 -118
246 -294 -118
300 -237 -120
237 -300 -120
227 -296 -122
296 -227 -122
228 -233 -124
233 -228 -124
257 -266 -126
266 -257 -126
245 -226 -128
226 -245 -128
247 -268 -130
268 -247 -130
262 -229 -132
229 -262 -132
259 -296 -134
296 -259 -134
262 -242 -136
242 -262 -136
251 -237 -138
237 -251 -138
241 -270 -140
270 -241 -140
239 -238 -142
238 -239 -142
254 -281 -144
281 -254 -144
257 -251 -146
251 -257 -146
278 -253 -148
253 -278 -148
258 -274 -150
274 -258 -150
288 -263 -152
263 -288 -152
240 -260 -154
260 -240 -154
247 -283 -156
283 -247 -156
288 -237 -158
237 -288 -158
262 -295 -160
295 -262 -160
275 -251 -162
251 -275 -162
288 -273 -164
273 -288 -164
262 -269 -166
269 -262 -166
247 -228 -168
228 -247 -168
245 -297 -170
297 -245 -170
234 -279 -172
279 -234 -172
288 -293 -174
293 -288 -174
233 -241 -176
241 -233 -176
233 -267 -178
267 -233 -178
288 -247 -180
247 -288 -180
233 -236 -182
236 -233 -182
281 -301 -184
301 -281 -184
275 -250 -186
250 -275 -186
269 -295 -188
295 -269 -188
251 -266 -190
266 -251 -190
254 -301 -192
301 -254 -192
244 -246 -194
246 -244 -194
299 -266 -196
266 -299 -196
259 -282 -198
282 -259 -198
233 -290 -200
290 -233 -200
235 -252 -202
252 -235 -202
245 -284 -204
284 -245 -204
247 -239 -206
239 -247 -206
241 -270 -208
270 -241 -208
245 -271 -210
271 -245 -210
287 -286 -212
286 -287 -212
279 -277 -214
277 -279 -214
251 -299 -216
299 -251 -216
288 -259 -218
259 -288 -218
233 -267 -220
267 -233 -220
262 -301 -222
301 -262 -222
234 -272 -224
272 -234 -224